letting n =  10
letting blocks =  [[2, 1], [2, 3], [2, 4], [2, 5], [2, 6], [2, 8], [3, 1], [4, 4], [4, 6], [4, 8], [4, 9], [5, 4], [5, 5], [5, 7], [5, 10], [6, 3], [6, 5], [6, 6], [7, 1], [7, 4], [7, 6], [7, 10], [8, 4], [8, 7], [8, 10], [9, 5], [10, 7], [10, 9]]
